147	32	4	97	
10	10	10	10

0	0	0	0	0	0	2	1	2
1	0	6	3	0	2	1	4
2	2	0	0	0	5	1	3
3	0	0	10	0	4	2	6	30
4	2	5	10	1	9	1	5
5	8	9	1	0	4	1	7
6	0	5	5	3	3	1	8
7	0	0	3	9	4	1	9
8	6	1	0	8	4	1	13
9	0	0	1	3	2	1	10
10	0	0	9	3	4	1	11
11	8	0	0	0	8	1	12
12	0	0	0	1	1	1	14
13	6	0	9	0	8	1	16
14	0	0	9	8	10	2	15	30
15	5	0	0	3	3	1	18
16	7	0	0	0	5	1	17
17	0	0	5	0	7	1	19
18	0	2	7	0	6	1	20
19	7	0	2	7	4	1	26
20	0	6	2	0	3	2	21	29
21	9	2	5	0	8	1	22
22	0	9	0	0	10	1	23
23	0	10	0	0	5	1	24
24	10	4	4	1	4	1	25
25	0	4	8	0	5	1	28
26	0	0	3	0	1	1	27
27	0	0	10	1	5	1	31
28	2	0	2	2	3	1	31
29	0	9	0	3	7	1	31
30	9	0	0	0	3	1	31
31	0	0	0	0	0	0
